POSCAR created by SUPERPOSCAR           
   8.49000000000000     
     1.0095831000000000    0.0000000000000000    0.0000000000000000
     0.0000000000000000    1.0095831000000000    0.0000000000000000
     0.0000000000000000    0.0000000000000000    1.0095831000000000
   Zn   Rh   O 
   8  16  32
Direct
  0.8749999619237618  0.8750003929572068  0.8749996293118885
  0.1250003927428578  0.1249996002505668  0.1250000498588258
  0.3749996185836299  0.3750000152806186  0.8749996229317488
  0.3749996235752612  0.8750003937150279  0.3749999505434747
  0.1250003977164266  0.6249999608637681  0.6250003445779728
  0.8750003119053088  0.3749996616193785  0.3750003006093636
  0.6249999964160099  0.1249995990670339  0.6250003409410126
  0.6249996451553403  0.6250003145295480  0.1249997056937741
  0.2499999532638509 -0.0000000562219582  0.7499999635608411
  0.2500040739774012  0.7499989455693492  0.0000006945098980
 -0.0000008583806898  0.2500008829653456  0.7499958103600717
  0.7499998752130579  0.2500000908740012  0.0000001185194903
 -0.0000002116166896  0.7499997972773275  0.2500000421352000
  0.7499999713968072  0.0000000056787719  0.2499999986860914
 -0.0000010163412229  0.0000039855812780  0.4999991617973041
 -0.0000001038807461  0.5000000298045689  0.0000000270801035
  0.5000009295062696 -0.0000040769623889  0.0000007747938576
  0.7500000290535308  0.7499998263590262  0.4999999281347002
  0.2499959316584135  0.2500010147684724  0.4999991661811572
  0.7499999173943562  0.5000000426252047  0.7499999213455575
  0.5000008153173919  0.7499989998089318  0.7500040685657159
  0.2500000184927070  0.4999999426264420  0.2500000186466683
  0.5000001562030614  0.2500001990968985  0.2499999709388798
  0.5000000472317028  0.4999999241708166  0.4999999096902558
  0.0080364787039265  0.0079976658490093  0.7420021003089231
  0.0080094317862850  0.7419914722607789  0.0080085282266462
  0.2579979410126740  0.9920022541200265  0.9919635687947894
  0.7420006035628088  0.0080031445770280  0.0080268888721192
  0.9919914181182031  0.2580086314667468  0.9919905871596704
  0.9919731228648051  0.9919967750285370  0.2579994155734018
  0.2420023602608880  0.2419634359342138  0.7420022200602761
  0.2419967196569813  0.7419730815965262  0.2420006243943911
  0.2579976888999923  0.7580365165518198  0.7579976960432268
  0.7419979014622667  0.2419744190748869  0.2419978762261865
  0.7579992338135777  0.2580269469948618  0.7580032846766211
  0.7580020668245293  0.7580255455174566  0.2580021627405840
  0.7420007595132678  0.7419731203929101  0.7419966971741745
  0.2580032358844477  0.2580268709481685  0.2579993745598743
  0.2420020973664042  0.0079978127598788  0.5080363846751900
  0.0080060807575708  0.2419937666359255  0.5080058622031431
  0.2419967336866541  0.5079992255655574  0.0080269110663487
  0.0080255305804597  0.5080021298825587  0.2419977681309357
  0.4919939760156019  0.7580062677949851  0.9919941543867504
  0.4919635196650385  0.9920023455147728  0.7579979252914908
  0.5080083838198824  0.2419903391504569  0.0080084240322950
  0.5080268577979464  0.0080031777056740  0.2420005091953747
  0.7580022375848383  0.4919978141684344  0.9919745047648564
  0.9919730761154217  0.4920007555116361  0.7580033050252020
  0.7579992939274166  0.9919967897618225  0.4919730906568809
  0.9919915484015017  0.7580095252229373  0.4919915326236779
  0.7419977125584336  0.5080021623443344  0.5080254253384037
  0.5080085701231746  0.7419913133079694  0.5080093205878663
  0.5080268389441233  0.5079991463368921  0.7419966063732747
  0.2580032849016645  0.4920007380290448  0.4919731212756145
  0.4919905278539449  0.2580085943446646  0.4919915236429288
  0.4919744910274613  0.4919979233442394  0.2580022865050191
 
  0.00000000E+00  0.00000000E+00  0.00000000E+00
  0.00000000E+00  0.00000000E+00  0.00000000E+00
  0.00000000E+00  0.00000000E+00  0.00000000E+00
  0.00000000E+00  0.00000000E+00  0.00000000E+00
  0.00000000E+00  0.00000000E+00  0.00000000E+00
  0.00000000E+00  0.00000000E+00  0.00000000E+00
  0.00000000E+00  0.00000000E+00  0.00000000E+00
  0.00000000E+00  0.00000000E+00  0.00000000E+00
  0.00000000E+00  0.00000000E+00  0.00000000E+00
  0.00000000E+00  0.00000000E+00  0.00000000E+00
  0.00000000E+00  0.00000000E+00  0.00000000E+00
  0.00000000E+00  0.00000000E+00  0.00000000E+00
  0.00000000E+00  0.00000000E+00  0.00000000E+00
  0.00000000E+00  0.00000000E+00  0.00000000E+00
  0.00000000E+00  0.00000000E+00  0.00000000E+00
  0.00000000E+00  0.00000000E+00  0.00000000E+00
  0.00000000E+00  0.00000000E+00  0.00000000E+00
  0.00000000E+00  0.00000000E+00  0.00000000E+00
  0.00000000E+00  0.00000000E+00  0.00000000E+00
  0.00000000E+00  0.00000000E+00  0.00000000E+00
  0.00000000E+00  0.00000000E+00  0.00000000E+00
  0.00000000E+00  0.00000000E+00  0.00000000E+00
  0.00000000E+00  0.00000000E+00  0.00000000E+00
  0.00000000E+00  0.00000000E+00  0.00000000E+00
  0.00000000E+00  0.00000000E+00  0.00000000E+00
  0.00000000E+00  0.00000000E+00  0.00000000E+00
  0.00000000E+00  0.00000000E+00  0.00000000E+00
  0.00000000E+00  0.00000000E+00  0.00000000E+00
  0.00000000E+00  0.00000000E+00  0.00000000E+00
  0.00000000E+00  0.00000000E+00  0.00000000E+00
  0.00000000E+00  0.00000000E+00  0.00000000E+00
  0.00000000E+00  0.00000000E+00  0.00000000E+00
  0.00000000E+00  0.00000000E+00  0.00000000E+00
  0.00000000E+00  0.00000000E+00  0.00000000E+00
  0.00000000E+00  0.00000000E+00  0.00000000E+00
  0.00000000E+00  0.00000000E+00  0.00000000E+00
  0.00000000E+00  0.00000000E+00  0.00000000E+00
  0.00000000E+00  0.00000000E+00  0.00000000E+00
  0.00000000E+00  0.00000000E+00  0.00000000E+00
  0.00000000E+00  0.00000000E+00  0.00000000E+00
  0.00000000E+00  0.00000000E+00  0.00000000E+00
  0.00000000E+00  0.00000000E+00  0.00000000E+00
  0.00000000E+00  0.00000000E+00  0.00000000E+00
  0.00000000E+00  0.00000000E+00  0.00000000E+00
  0.00000000E+00  0.00000000E+00  0.00000000E+00
  0.00000000E+00  0.00000000E+00  0.00000000E+00
  0.00000000E+00  0.00000000E+00  0.00000000E+00
  0.00000000E+00  0.00000000E+00  0.00000000E+00
  0.00000000E+00  0.00000000E+00  0.00000000E+00
  0.00000000E+00  0.00000000E+00  0.00000000E+00
  0.00000000E+00  0.00000000E+00  0.00000000E+00
  0.00000000E+00  0.00000000E+00  0.00000000E+00
  0.00000000E+00  0.00000000E+00  0.00000000E+00
  0.00000000E+00  0.00000000E+00  0.00000000E+00
  0.00000000E+00  0.00000000E+00  0.00000000E+00
  0.00000000E+00  0.00000000E+00  0.00000000E+00
