POSCAR created by SUPERPOSCAR           
   8.49000000000000     
     1.0095831000000000    0.0000000000000000    0.0000000000000000
     0.0000000000000000    1.0095831000000000    0.0000000000000000
     0.0000000000000000    0.0000000000000000    1.0095831000000000
   Zn   Rh   O 
   8  16  32
Direct
  0.8750000000000000  0.8750000000000000  0.8750000000000000
  0.1250000000000000  0.1250000000000000  0.1250000000000000
  0.3750000000000000  0.3750000000000000  0.8750000000000000
  0.3750000000000000  0.8750000000000000  0.3750000000000000
  0.1250000000000000  0.6250000000000000  0.6250000000000000
  0.8750000000000000  0.3750000000000000  0.3750000000000000
  0.6250000000000000  0.1250000000000000  0.6250000000000000
  0.6250000000000000  0.6250000000000000  0.1250000000000000
  0.2500000000000000  0.0000000000000000  0.7500000000000000
  0.2500000000000000  0.7500000000000000  0.0000000000000000
  0.0000000000000000  0.2500000000000000  0.7500000000000000
  0.7500000000000000  0.2500000000000000  0.0000000000000000
  0.0000000000000000  0.7500000000000000  0.2500000000000000
  0.7500000000000000  0.0000000000000000  0.2500000000000000
  0.0000000000000000  0.0000000000000000  0.5000000000000000
  0.0000000000000000  0.5000000000000000  0.0000000000000000
  0.5000000000000000  0.0000000000000000  0.0000000000000000
  0.7500000000000000  0.7500000000000000  0.5000000000000000
  0.2500000000000000  0.2500000000000000  0.5000000000000000
  0.7500000000000000  0.5000000000000000  0.7500000000000000
  0.5000000000000000  0.7500000000000000  0.7500000000000000
  0.2500000000000000  0.5000000000000000  0.2500000000000000
  0.5000000000000000  0.2500000000000000  0.2500000000000000
  0.5000000000000000  0.5000000000000000  0.5000000000000000
  0.0086070999999990  0.0086070999999990  0.7413929000000010
  0.0086070999999990  0.7413929000000010  0.0086070999999990
  0.2586070999999990  0.9913929000000010  0.9913929000000010
  0.7413929000000010  0.0086070999999990  0.0086070999999990
  0.9913929000000010  0.2586070999999990  0.9913929000000010
  0.9913929000000010  0.9913929000000010  0.2586070999999990
  0.2413929000000010  0.2413929000000010  0.7413929000000010
  0.2413929000000010  0.7413929000000010  0.2413929000000010
  0.2586070999999990  0.7586069999999978  0.7586069999999978
  0.7413929000000010  0.2413929000000010  0.2413929000000010
  0.7586069999999978  0.2586070999999990  0.7586069999999978
  0.7586069999999978  0.7586069999999978  0.2586070999999990
  0.7413929000000010  0.7413929000000010  0.7413929000000010
  0.2586070999999990  0.2586070999999990  0.2586070999999990
  0.2413929000000010  0.0086070999999990  0.5086069999999978
  0.0086070999999990  0.2413929000000010  0.5086069999999978
  0.2413929000000010  0.5086069999999978  0.0086070999999990
  0.0086070999999990  0.5086069999999978  0.2413929000000010
  0.4913929000000010  0.7586069999999978  0.9913929000000010
  0.4913929000000010  0.9913929000000010  0.7586069999999978
  0.5086069999999978  0.2413929000000010  0.0086070999999990
  0.5086069999999978  0.0086070999999990  0.2413929000000010
  0.7586069999999978  0.4913929000000010  0.9913929000000010
  0.9913929000000010  0.4913929000000010  0.7586069999999978
  0.7586069999999978  0.9913929000000010  0.4913929000000010
  0.9913929000000010  0.7586069999999978  0.4913929000000010
  0.7413929000000010  0.5086069999999978  0.5086069999999978
  0.5086069999999978  0.7413929000000010  0.5086069999999978
  0.5086069999999978  0.5086069999999978  0.7413929000000010
  0.2586070999999990  0.4913929000000010  0.4913929000000010
  0.4913929000000010  0.2586070999999990  0.4913929000000010
  0.4913929000000010  0.4913929000000010  0.2586070999999990
 
  0.00000000E+00  0.00000000E+00  0.00000000E+00
  0.00000000E+00  0.00000000E+00  0.00000000E+00
  0.00000000E+00  0.00000000E+00  0.00000000E+00
  0.00000000E+00  0.00000000E+00  0.00000000E+00
  0.00000000E+00  0.00000000E+00  0.00000000E+00
  0.00000000E+00  0.00000000E+00  0.00000000E+00
  0.00000000E+00  0.00000000E+00  0.00000000E+00
  0.00000000E+00  0.00000000E+00  0.00000000E+00
  0.00000000E+00  0.00000000E+00  0.00000000E+00
  0.00000000E+00  0.00000000E+00  0.00000000E+00
  0.00000000E+00  0.00000000E+00  0.00000000E+00
  0.00000000E+00  0.00000000E+00  0.00000000E+00
  0.00000000E+00  0.00000000E+00  0.00000000E+00
  0.00000000E+00  0.00000000E+00  0.00000000E+00
  0.00000000E+00  0.00000000E+00  0.00000000E+00
  0.00000000E+00  0.00000000E+00  0.00000000E+00
  0.00000000E+00  0.00000000E+00  0.00000000E+00
  0.00000000E+00  0.00000000E+00  0.00000000E+00
  0.00000000E+00  0.00000000E+00  0.00000000E+00
  0.00000000E+00  0.00000000E+00  0.00000000E+00
  0.00000000E+00  0.00000000E+00  0.00000000E+00
  0.00000000E+00  0.00000000E+00  0.00000000E+00
  0.00000000E+00  0.00000000E+00  0.00000000E+00
  0.00000000E+00  0.00000000E+00  0.00000000E+00
  0.00000000E+00  0.00000000E+00  0.00000000E+00
  0.00000000E+00  0.00000000E+00  0.00000000E+00
  0.00000000E+00  0.00000000E+00  0.00000000E+00
  0.00000000E+00  0.00000000E+00  0.00000000E+00
  0.00000000E+00  0.00000000E+00  0.00000000E+00
  0.00000000E+00  0.00000000E+00  0.00000000E+00
  0.00000000E+00  0.00000000E+00  0.00000000E+00
  0.00000000E+00  0.00000000E+00  0.00000000E+00
  0.00000000E+00  0.00000000E+00  0.00000000E+00
  0.00000000E+00  0.00000000E+00  0.00000000E+00
  0.00000000E+00  0.00000000E+00  0.00000000E+00
  0.00000000E+00  0.00000000E+00  0.00000000E+00
  0.00000000E+00  0.00000000E+00  0.00000000E+00
  0.00000000E+00  0.00000000E+00  0.00000000E+00
  0.00000000E+00  0.00000000E+00  0.00000000E+00
  0.00000000E+00  0.00000000E+00  0.00000000E+00
  0.00000000E+00  0.00000000E+00  0.00000000E+00
  0.00000000E+00  0.00000000E+00  0.00000000E+00
  0.00000000E+00  0.00000000E+00  0.00000000E+00
  0.00000000E+00  0.00000000E+00  0.00000000E+00
  0.00000000E+00  0.00000000E+00  0.00000000E+00
  0.00000000E+00  0.00000000E+00  0.00000000E+00
  0.00000000E+00  0.00000000E+00  0.00000000E+00
  0.00000000E+00  0.00000000E+00  0.00000000E+00
  0.00000000E+00  0.00000000E+00  0.00000000E+00
  0.00000000E+00  0.00000000E+00  0.00000000E+00
  0.00000000E+00  0.00000000E+00  0.00000000E+00
  0.00000000E+00  0.00000000E+00  0.00000000E+00
  0.00000000E+00  0.00000000E+00  0.00000000E+00
  0.00000000E+00  0.00000000E+00  0.00000000E+00
  0.00000000E+00  0.00000000E+00  0.00000000E+00
  0.00000000E+00  0.00000000E+00  0.00000000E+00
