Crystal structure of individual
  5.8
  0    0.5  0.5
  0.5  0    0.5
  0.5  0.5  0
   1   1
Direct
  0    0    0
  0.55  0.5  0.5
