Crystal structure of individual
   0.50
   5.00000     0.00000     0.00000
   0.0 5.0 0.0
   0.0 0.0 5.0
   1   1
Direct
   0.0  0 0
   0.5 0.5  0.5
