Crystal structure of individual
   0.45
   7.89714     0.00000     0.00000
   1.64518     7.03995     0.00000
  -0.99596     1.52374     3.49669
   1   1
Direct
   0.01344     0.18811     0.20805
  -0.11601     0.04736    -0.10257
