POSCAR created by SUPERPOSCAR           
   8.49000000000000     
     1.0095831000000000    0.0000000000000000    0.0000000000000000
     0.0000000000000000    1.0095831000000000    0.0000000000000000
     0.0000000000000000    0.0000000000000000    1.0095831000000000
   Zn   Rh   O 
   8  16  32
Direct
  0.8749998274845998  0.8750002471899442  0.8749997688503207
  0.1250002544476443  0.1249997574351972  0.1250001837226709
  0.3749997554704378  0.3750001484061903  0.8749997694535258
  0.3749997543827660  0.8750002479810133  0.3749998062963368
  0.1250002538338731  0.6249998181932328  0.6250002089778903
  0.8750000428996838  0.3749999315220633  0.3750000238475641
  0.6250001386902518  0.1249997570833856  0.6250002100538892
  0.6249999211574228  0.6250000335867907  0.1249999724478609
  0.2499999629392084 -0.0000000254736432  0.7499999729501035
  0.2500019755593000  0.7499987235587160  0.0000010650754726
 -0.0000011813320517  0.2500011374354758  0.7499979400076814
  0.7499999076941595  0.2500000516518328  0.0000000666462988
 -0.0000001368019062  0.7499998426937928  0.2500000012930221
  0.7499999572594341  0.0000000129401845  0.2499999803577786
 -0.0000012606271406  0.0000019311347325  0.4999988493704421
 -0.0000000980382027  0.5000000055260261  0.0000000366616578
  0.5000011928194734 -0.0000019849543275  0.0000010877682322
  0.7499999834911222  0.7499998658284963  0.4999999464506390
  0.2499980362782697  0.2500012424407366  0.4999988240354514
  0.7499999310855756  0.5000000015439343  0.7499999484701401
  0.5000011360696242  0.7499987690767658  0.7500019668059624
  0.2500000172597216  0.4999999457743823  0.2500000103911189
  0.5000000835718087  0.2500001362036282  0.2499999801027872
  0.5000000300839403  0.4999999213503834  0.4999998934067069
  0.0083912549757862  0.0083682988631725  0.7416316500944798
  0.0083751626401826  0.7416255113281747  0.0083745719800781
  0.2583683472935547  0.9916316171751253  0.9916087807870231
  0.7416308802089846  0.0083713045016548  0.0083854838351110
  0.9916253787532583  0.2583745545000855  0.9916248729564471
  0.9916145210899926  0.9916286398673371  0.2583691520947784
  0.2416317244336437  0.2416087455195001  0.7416316197129111
  0.2416286546639644  0.7416145490553391  0.2416307865762907
  0.2583683196717306  0.7583912167498352  0.7583683213236164
  0.7416292824811188  0.2416153691784818  0.2416292629730971
  0.7583690902690224  0.2583854884850074  0.7583713408560833
  0.7583706776232216  0.7583845898566964  0.2583707776994060
  0.7416309022956249  0.7416145642484745  0.7416286240820278
  0.2583713185200868  0.2583854156688424  0.2583692028415873
  0.2416316477722620  0.0083684126190887  0.5083911780525407
  0.0083733390995710  0.2416267015657770  0.5083731718885871
  0.2416287150878373  0.5083691270702096  0.0083854752055829
  0.0083846213779049  0.5083707320447908  0.2416292643379233
  0.4916266869455310  0.7583732781412884  0.9916268136016030
  0.4916087449555036  0.9916316809042490  0.7583683330419304
  0.5083745077055087  0.2416248371713750  0.0083745375362442
  0.5083854582121076  0.0083713245423941  0.2416308074141943
  0.7583707179872889  0.4916292152537251  0.9916153818781870
  0.9916144896069541  0.4916308675413016  0.7583713058865535
  0.7583690527577462  0.9916286387526982  0.4916145130084225
  0.9916254249251037  0.7583750817319617  0.4916254440965085
  0.7416292417280146  0.5083707685827187  0.5083845496632934
  0.5083746135352128  0.7416254125506080  0.5083750659829371
  0.5083854301429456  0.5083690736917683  0.7416286338313133
  0.2583712973490470  0.4916308440998947  0.4916145427026180
  0.4916248233082266  0.2583745269978392  0.4916254547317608
  0.4916153869040369  0.4916292936116416  0.2583707658832996
 
  0.00000000E+00  0.00000000E+00  0.00000000E+00
  0.00000000E+00  0.00000000E+00  0.00000000E+00
  0.00000000E+00  0.00000000E+00  0.00000000E+00
  0.00000000E+00  0.00000000E+00  0.00000000E+00
  0.00000000E+00  0.00000000E+00  0.00000000E+00
  0.00000000E+00  0.00000000E+00  0.00000000E+00
  0.00000000E+00  0.00000000E+00  0.00000000E+00
  0.00000000E+00  0.00000000E+00  0.00000000E+00
  0.00000000E+00  0.00000000E+00  0.00000000E+00
  0.00000000E+00  0.00000000E+00  0.00000000E+00
  0.00000000E+00  0.00000000E+00  0.00000000E+00
  0.00000000E+00  0.00000000E+00  0.00000000E+00
  0.00000000E+00  0.00000000E+00  0.00000000E+00
  0.00000000E+00  0.00000000E+00  0.00000000E+00
  0.00000000E+00  0.00000000E+00  0.00000000E+00
  0.00000000E+00  0.00000000E+00  0.00000000E+00
  0.00000000E+00  0.00000000E+00  0.00000000E+00
  0.00000000E+00  0.00000000E+00  0.00000000E+00
  0.00000000E+00  0.00000000E+00  0.00000000E+00
  0.00000000E+00  0.00000000E+00  0.00000000E+00
  0.00000000E+00  0.00000000E+00  0.00000000E+00
  0.00000000E+00  0.00000000E+00  0.00000000E+00
  0.00000000E+00  0.00000000E+00  0.00000000E+00
  0.00000000E+00  0.00000000E+00  0.00000000E+00
  0.00000000E+00  0.00000000E+00  0.00000000E+00
  0.00000000E+00  0.00000000E+00  0.00000000E+00
  0.00000000E+00  0.00000000E+00  0.00000000E+00
  0.00000000E+00  0.00000000E+00  0.00000000E+00
  0.00000000E+00  0.00000000E+00  0.00000000E+00
  0.00000000E+00  0.00000000E+00  0.00000000E+00
  0.00000000E+00  0.00000000E+00  0.00000000E+00
  0.00000000E+00  0.00000000E+00  0.00000000E+00
  0.00000000E+00  0.00000000E+00  0.00000000E+00
  0.00000000E+00  0.00000000E+00  0.00000000E+00
  0.00000000E+00  0.00000000E+00  0.00000000E+00
  0.00000000E+00  0.00000000E+00  0.00000000E+00
  0.00000000E+00  0.00000000E+00  0.00000000E+00
  0.00000000E+00  0.00000000E+00  0.00000000E+00
  0.00000000E+00  0.00000000E+00  0.00000000E+00
  0.00000000E+00  0.00000000E+00  0.00000000E+00
  0.00000000E+00  0.00000000E+00  0.00000000E+00
  0.00000000E+00  0.00000000E+00  0.00000000E+00
  0.00000000E+00  0.00000000E+00  0.00000000E+00
  0.00000000E+00  0.00000000E+00  0.00000000E+00
  0.00000000E+00  0.00000000E+00  0.00000000E+00
  0.00000000E+00  0.00000000E+00  0.00000000E+00
  0.00000000E+00  0.00000000E+00  0.00000000E+00
  0.00000000E+00  0.00000000E+00  0.00000000E+00
  0.00000000E+00  0.00000000E+00  0.00000000E+00
  0.00000000E+00  0.00000000E+00  0.00000000E+00
  0.00000000E+00  0.00000000E+00  0.00000000E+00
  0.00000000E+00  0.00000000E+00  0.00000000E+00
  0.00000000E+00  0.00000000E+00  0.00000000E+00
  0.00000000E+00  0.00000000E+00  0.00000000E+00
  0.00000000E+00  0.00000000E+00  0.00000000E+00
  0.00000000E+00  0.00000000E+00  0.00000000E+00
