Automatic generation
0
gamma
10 10 6
0 0 0


