POSCAR created by SUPERPOSCAR
   3.260540
   0.5000000  -0.8660254   0.0000000
   0.5000000   0.8660254   0.0000000
   0.0000000   0.0000000   1.6100972
            2            2
direct     
   0.0000000   0.0000000  -0.0001850
   0.3333334  -0.3333333   0.4998150
   0.3333334  -0.3333333  -0.1202150
   0.0000000   0.0000000   0.3797850
