Automatic generation
0
gamma
6 6 10
0 0 0


