 POSCAR by pos_vscal                    
    4.764290000000000     
     0.9992688993774141    0.0000000000000000    0.0000000000000000
     0.0000000000000000    0.9992688993774141    0.0000000000000000
     0.0000000000000000    0.0000000000000000    0.6709806887042068
   Sn   O 
   2   4
Direct
  0.0000000000000000  0.0000000000000000  0.0000000000000000
  0.5000000000000000  0.5000000000000000  0.5000000000000000
  0.3059917993903200  0.3059917993903200  0.0000000000000000
  0.6940082006096799  0.6940082006096799  0.0000000000000000
  0.8059917993903201  0.1940082006096800  0.5000000000000000
  0.1940082006096800  0.8059917993903201  0.5000000000000000

  0.00000000E+00  0.00000000E+00  0.00000000E+00
  0.00000000E+00  0.00000000E+00  0.00000000E+00
  0.00000000E+00  0.00000000E+00  0.00000000E+00
  0.00000000E+00  0.00000000E+00  0.00000000E+00
  0.00000000E+00  0.00000000E+00  0.00000000E+00
  0.00000000E+00  0.00000000E+00  0.00000000E+00
