POSCAR created by SUPERPOSCAR           
   8.49000000000000     
     1.0095831000000000    0.0000000000000000    0.0000000000000000
     0.0000000000000000    1.0095831000000000    0.0000000000000000
     0.0000000000000000    0.0000000000000000    1.0095831000000000
   Zn   Rh   O 
   8  16  32
Direct
  0.8751642942842097  0.8749477962641063  0.8750121137720474
  0.1249731196925625  0.1250315240010704  0.1248087677304906
  0.3750067389376475  0.3748387290102863  0.8750116678361869
  0.3750119020274394  0.8749469909161171  0.3751921042821860
  0.1249731035186609  0.6251733688137131  0.6249819818714111
  0.8751920103766667  0.3748325249713910  0.3752104582882473
  0.6248417194298752  0.1250262733761232  0.6249870044586007
  0.6248362278381595  0.6252039602117605  0.1247960072341084
  0.2499918717794815 -0.0000120740735134  0.7499940278980899
  0.2500489846992546  0.7500287015668695 -0.0000465735230270
  0.0000368248326223  0.2499874962927531  0.7499411655728689
  0.7500005268991489  0.2498930154110361 -0.0001328437075632
  0.0001281380590966  0.7501019031669214  0.2500053704588814
  0.7499860762855096 -0.0000149359678707  0.2499817379244402
  0.0000446501168243  0.0000382438741050  0.5000548914588533
  0.0001252729983964  0.5000039278729512 -0.0001377084838181
  0.4999756203846729 -0.0000727402353813 -0.0000486306038306
  0.7500035021083391  0.7500972263741673  0.5001372725527655
  0.2499385472373015  0.2499872697056290  0.5000417316600806
  0.7500198513570768  0.5000166938445206  0.7499978317459480
  0.4999712412034206  0.7500258652961164  0.7500503615972389
  0.2500031550694776  0.5000019892553998  0.2500240846742360
  0.4998667567655117  0.2498955455150987  0.2500008790238716
  0.4998644918773072  0.5000229473344663  0.5001322397571801
  0.0052766999088256  0.0053534293307200  0.7446409492070850
  0.0053280614803479  0.7446397236779958  0.0053399835561097
  0.2553601161867282  0.9946520396517783  0.9947122885683041
  0.7445777697134370  0.0055777134060273  0.0050718822604828
  0.9946492191967938  0.2553622388385092  0.9946837524573128
  0.9949091412736890  0.9944390925583122  0.2554395488514075
  0.2446438964948965  0.2447197795659411  0.7446185556680722
  0.2444568667821273  0.7448974601483885  0.2445935581352306
  0.2553512089724091  0.7552778320794484  0.7553595120414530
  0.7444667099288982  0.2450056332747320  0.2445181634740439
  0.7554057476402721  0.2550836389893228  0.7555883618572391
  0.7554654535881077  0.7550480060535125  0.2554611598670330
  0.7445859291016186  0.7449095241974427  0.7444575196970311
  0.2556001066521733  0.2550729183165740  0.2554018512283321
  0.2446455257137830  0.0053701973473945  0.5052742880329588
  0.0051907053003887  0.2448103724775660  0.5051726512059280
  0.2444186418271332  0.5053916387313572  0.0051158983387060
  0.0050387387914715  0.5054511910296561  0.2444962867234105
  0.4948237981860477  0.7551917796071609  0.9948266982744114
  0.4946967854758029  0.9946454357275429  0.7553703617368888
  0.5053606167464195  0.2446701669592191  0.0053806964697711
  0.5050689031029123  0.0056364729926529  0.2445983307772764
  0.7554675478199359  0.4945110082525369  0.9949867014536081
  0.9949231349938008  0.4945880174753914  0.7555890290431916
  0.7554377671255345  0.9944586024855440  0.4948940698223924
  0.9946572258488302  0.7553407601616186  0.4946509153466457
  0.7444935574962789  0.5054306244415027  0.5050342467877923
  0.5053378215700692  0.7446385994106791  0.5053160086018137
  0.5050930063548373  0.5053911931019140  0.7443853704999810
  0.2555789257693191  0.4945933801874244  0.4949133772351736
  0.4946674809292150  0.2553624705167546  0.4946232975542970
  0.4950174622492235  0.4944760162075340  0.2554879417471131
 
  0.00000000E+00  0.00000000E+00  0.00000000E+00
  0.00000000E+00  0.00000000E+00  0.00000000E+00
  0.00000000E+00  0.00000000E+00  0.00000000E+00
  0.00000000E+00  0.00000000E+00  0.00000000E+00
  0.00000000E+00  0.00000000E+00  0.00000000E+00
  0.00000000E+00  0.00000000E+00  0.00000000E+00
  0.00000000E+00  0.00000000E+00  0.00000000E+00
  0.00000000E+00  0.00000000E+00  0.00000000E+00
  0.00000000E+00  0.00000000E+00  0.00000000E+00
  0.00000000E+00  0.00000000E+00  0.00000000E+00
  0.00000000E+00  0.00000000E+00  0.00000000E+00
  0.00000000E+00  0.00000000E+00  0.00000000E+00
  0.00000000E+00  0.00000000E+00  0.00000000E+00
  0.00000000E+00  0.00000000E+00  0.00000000E+00
  0.00000000E+00  0.00000000E+00  0.00000000E+00
  0.00000000E+00  0.00000000E+00  0.00000000E+00
  0.00000000E+00  0.00000000E+00  0.00000000E+00
  0.00000000E+00  0.00000000E+00  0.00000000E+00
  0.00000000E+00  0.00000000E+00  0.00000000E+00
  0.00000000E+00  0.00000000E+00  0.00000000E+00
  0.00000000E+00  0.00000000E+00  0.00000000E+00
  0.00000000E+00  0.00000000E+00  0.00000000E+00
  0.00000000E+00  0.00000000E+00  0.00000000E+00
  0.00000000E+00  0.00000000E+00  0.00000000E+00
  0.00000000E+00  0.00000000E+00  0.00000000E+00
  0.00000000E+00  0.00000000E+00  0.00000000E+00
  0.00000000E+00  0.00000000E+00  0.00000000E+00
  0.00000000E+00  0.00000000E+00  0.00000000E+00
  0.00000000E+00  0.00000000E+00  0.00000000E+00
  0.00000000E+00  0.00000000E+00  0.00000000E+00
  0.00000000E+00  0.00000000E+00  0.00000000E+00
  0.00000000E+00  0.00000000E+00  0.00000000E+00
  0.00000000E+00  0.00000000E+00  0.00000000E+00
  0.00000000E+00  0.00000000E+00  0.00000000E+00
  0.00000000E+00  0.00000000E+00  0.00000000E+00
  0.00000000E+00  0.00000000E+00  0.00000000E+00
  0.00000000E+00  0.00000000E+00  0.00000000E+00
  0.00000000E+00  0.00000000E+00  0.00000000E+00
  0.00000000E+00  0.00000000E+00  0.00000000E+00
  0.00000000E+00  0.00000000E+00  0.00000000E+00
  0.00000000E+00  0.00000000E+00  0.00000000E+00
  0.00000000E+00  0.00000000E+00  0.00000000E+00
  0.00000000E+00  0.00000000E+00  0.00000000E+00
  0.00000000E+00  0.00000000E+00  0.00000000E+00
  0.00000000E+00  0.00000000E+00  0.00000000E+00
  0.00000000E+00  0.00000000E+00  0.00000000E+00
  0.00000000E+00  0.00000000E+00  0.00000000E+00
  0.00000000E+00  0.00000000E+00  0.00000000E+00
  0.00000000E+00  0.00000000E+00  0.00000000E+00
  0.00000000E+00  0.00000000E+00  0.00000000E+00
  0.00000000E+00  0.00000000E+00  0.00000000E+00
  0.00000000E+00  0.00000000E+00  0.00000000E+00
  0.00000000E+00  0.00000000E+00  0.00000000E+00
  0.00000000E+00  0.00000000E+00  0.00000000E+00
  0.00000000E+00  0.00000000E+00  0.00000000E+00
  0.00000000E+00  0.00000000E+00  0.00000000E+00
