POSCAR created by SUPERPOSCAR
   8.490000
   1.0095831   0.0000000   0.0000000
   0.0000000   1.0095831   0.0000000
   0.0000000   0.0000000   1.0095831
            8           16           32
direct     
  -0.1250000  -0.1250000  -0.1250000
   0.1250000   0.1250000   0.1250000
   0.3750000   0.3750000  -0.1250000
   0.3750000  -0.1250000   0.3750000
   0.1250000  -0.3750000  -0.3750000
  -0.1250000   0.3750000   0.3750000
  -0.3750000   0.1250000  -0.3750000
  -0.3750000  -0.3750000   0.1250000
   0.2500000   0.0000000  -0.2500000
   0.2500000  -0.2500000   0.0000000
   0.0000000   0.2500000  -0.2500000
  -0.2500000   0.2500000   0.0000000
   0.0000000  -0.2500000   0.2500000
  -0.2500000   0.0000000   0.2500000
   0.0000000   0.0000000   0.5000000
   0.0000000   0.5000000   0.0000000
   0.5000000   0.0000000   0.0000000
  -0.2500000  -0.2500000   0.5000000
   0.2500000   0.2500000   0.5000000
  -0.2500000   0.5000000  -0.2500000
   0.5000000  -0.2500000  -0.2500000
   0.2500000   0.5000000   0.2500000
   0.5000000   0.2500000   0.2500000
   0.5000000   0.5000000   0.5000000
   0.0086071   0.0086071  -0.2586071
   0.0086071  -0.2586071   0.0086071
   0.2586071  -0.0086071  -0.0086071
  -0.2586071   0.0086071   0.0086071
  -0.0086071   0.2586071  -0.0086071
  -0.0086071  -0.0086071   0.2586071
   0.2413929   0.2413929  -0.2586071
   0.2413929  -0.2586071   0.2413929
   0.2586071  -0.2413930  -0.2413930
  -0.2586071   0.2413929   0.2413929
  -0.2413930   0.2586071  -0.2413930
  -0.2413930  -0.2413930   0.2586071
  -0.2586071  -0.2586071  -0.2586071
   0.2586071   0.2586071   0.2586071
   0.2413929   0.0086071  -0.4913930
   0.0086071   0.2413929  -0.4913930
   0.2413929  -0.4913930   0.0086071
   0.0086071  -0.4913930   0.2413929
   0.4913929  -0.2413930  -0.0086071
   0.4913929  -0.0086071  -0.2413930
  -0.4913930   0.2413929   0.0086071
  -0.4913930   0.0086071   0.2413929
  -0.2413930   0.4913929  -0.0086071
  -0.0086071   0.4913929  -0.2413930
  -0.2413930  -0.0086071   0.4913929
  -0.0086071  -0.2413930   0.4913929
  -0.2586071  -0.4913930  -0.4913930
  -0.4913930  -0.2586071  -0.4913930
  -0.4913930  -0.4913930  -0.2586071
   0.2586071   0.4913929   0.4913929
   0.4913929   0.2586071   0.4913929
   0.4913929   0.4913929   0.2586071
