
   5.65000000000000     
    -0.0000005509815480    0.5085234102873913    0.5085233437048028
     0.5085235429562912   -0.0000005049882266    0.5085233015526756
     0.5085235629823416    0.5085233772165509   -0.0000005405639121
   As   Ga
     1     1
Direct
  0.2500000877628423  0.2500000386172729  0.2500000560113449
  0.9999999122371577  0.9999999613827271  0.9999999439886551
