
   3.25000000000000     
     1.0101867805296461    0.0000017066471113   -0.0000008292147322
    -0.5050917279098279    0.8748487621005280    0.0000006161284616
    -0.0000014316277710    0.0000003987459141    1.6317349994717389
   O    Zn
     2     2
Direct
  0.0000027239680946  0.9999969753535538  0.4143775550557720
  0.6666633208471993  0.3333369103918926  0.9143778080456642
  0.9999999886113713  0.0000002633909233  0.0356260485137554
  0.6666679665733284  0.3333318508636367  0.5356185883848141
