
   1.00000000000000     
     4.8225682588667844    0.0000026296886651   -0.0000009010344533
     0.0000023341826914    4.8225699879590724   -0.0000002348294749
    -0.0000003369739704   -0.0000008962404668    3.2460517325320635
   O    Sn
     4     2
Direct
  0.1934740684736624  0.8065268805072918  0.4999997210082583
  0.8065260130735510  0.1934734862091716  0.4999997150633035
  0.3065264239470338  0.3065272154561853  0.9999996993062581
  0.6934739203332896  0.6934736550120562  0.9999998255671017
  0.5000003892355522  0.5000004610162634  0.4999997685588085
  0.0000001849360984  0.0000003017977193  0.9999997402442631
